5802
8420
4196
2346
2384
446
3716
5366
10133
7817
9544
7051
4156
7380
2436
2385
1303
9914
4073
457
6964
9760
7563
8428
5712
5195
8018
8457
9280
2610
7708
8633
6509
3421
3345
2907
4405
4238
8958
4868
9951
1151
7969
9618
474
3630
2669
3206
8737
3213
2265
